column=10;
row=10;
Board=[|3,0,0,1,0,7,0,0,0,0|0,0,0,4,10,0,0,6,0,9|0,0,6,0,0,0,0,0,0,4|4,0,0,0,0,1,10,0,0,0|0,0,1,9,7,4,0,0,10,0|6,0,0,0,2,0,0,0,0,7|0,0,0,6,0,5,2,0,0,0|1,0,0,0,0,9,0,4,0,0|9,8,0,0,0,6,0,0,0,0|10,0,0,0,9,0,6,1,0,3|];
horizontal=[|0,0,1,0,1,0,0,0,0|1,0,1,0,0,0,1,0,1|0,0,0,0,1,0,1,1,0|0,0,0,1,0,0,0,0,0|0,1,0,0,0,1,0,0,0|1,0,0,0,0,0,0,0,0|0,0,0,0,0,0,1,0,0|0,0,0,0,0,1,0,0,0|1,0,0,0,0,1,0,1,0|0,0,1,0,1,0,0,1,1|];
vertical=[|1,0,0,0,0,0,0,0,0,1|0,0,1,1,0,1,0,0,1,0|1,0,0,1,0,1,1,1,0,1|0,0,0,0,0,0,0,0,1,1|0,0,0,1,0,0,0,0,0,1|1,1,0,0,0,0,1,0,0,0|0,1,0,0,0,0,0,1,0,0|0,0,0,0,1,0,0,0,0,1|1,1,0,0,0,0,1,1,1,0|];
